\ Model (null)_copy
\ LP format - for model browsing. Use MPS format to capture full model detail.
Minimize
 
Subject To
 C1241: - 3 X1592 - 3 X1593 + X1634 = 0
 C1248: X1634 - X1647 = 8
Bounds
 X1634 free
Binaries
 X1592 X1593
Generals
 X1634
End
